n=10;
m=60;
ciudades=[|0, 7
|3, 3
|2, 2
|10, 5
|3, 6
|1, 0
|9, 0
|9, 10
|6, 6
|10, 7
|10, 9
|5, 5
|0, 10
|1, 4
|6, 10
|2, 3
|3, 4
|0, 5
|1, 8
|9, 3
|9, 6
|9, 9
|3, 0
|7, 7
|10, 0
|5, 1
|1, 2
|8, 6
|9, 5
|0, 3
|0, 4
|6, 1
|2, 4
|4, 9
|4, 7
|10, 2
|3, 9
|3, 7
|2, 5
|2, 8
|5, 2
|6, 0
|3, 8
|10, 6
|4, 10
|0, 2
|8, 8
|5, 3
|8, 2
|3, 10
|3, 1
|9, 2
|7, 2
|2, 1
|6, 4
|10, 10
|8, 1
|4, 1
|8, 9
|6, 9|];